results_rootrelaxation/bin024_050_012.srr.sol
solution status: optimal solution found
objective value:                                    0
_var1527_                           0.105241162576507 	(obj:0)
_var3647_                           0.147672459399527 	(obj:0)
_var4390_                          0.0255846196146579 	(obj:0)
_var6906_                           0.276616968007983 	(obj:0)
_var6917_                           0.230202910759338 	(obj:0)
_var6918_                           0.117187726084835 	(obj:0)
_var6922_                          0.0705156311207341 	(obj:0)
_var6926_                           0.135576524650247 	(obj:0)
_var6938_                           0.242403860727024 	(obj:0)
_var6968_                           0.168937216657441 	(obj:0)
_var6979_                           0.342786860674586 	(obj:0)
_var6988_                          0.0266892046741067 	(obj:0)
_var6990_                          0.0403624446616253 	(obj:0)
_var6991_                           0.121636576965186 	(obj:0)
_var6992_                           0.122810697012474 	(obj:0)
_var6993_                          0.0690544323950812 	(obj:0)
_var6994_                          0.0971642711801841 	(obj:0)
_var6996_                           0.187068465662331 	(obj:0)
_var7004_                          0.0949090506316749 	(obj:0)
_var7007_                          0.0410780223809312 	(obj:0)
_var7012_                          0.0226647814230202 	(obj:0)
_var7015_                            0.20718288149503 	(obj:0)
_var7017_                           0.120323437006942 	(obj:0)
_var7023_                           0.140012005973264 	(obj:0)
_var7024_                           0.136445845552294 	(obj:0)
_var7025_                           0.234589243120233 	(obj:0)
_var7035_                           0.130016426868467 	(obj:0)
_var7036_                           0.114709185427032 	(obj:0)
_var7040_                          0.0720542368961586 	(obj:0)
_var7041_                           0.236996585699602 	(obj:0)
_var7054_                         0.00222048658284299 	(obj:0)
_var7059_                           0.141946869477562 	(obj:0)
_var7064_                           0.124388527973623 	(obj:0)
_var7070_                           0.110135478057207 	(obj:0)
_var7079_                           0.152805061781428 	(obj:0)
_var7081_                           0.194520176516254 	(obj:0)
_var7082_                          0.0245602370203923 	(obj:0)
_var7084_                           0.100525600517689 	(obj:0)
_var7085_                          0.0211893024907645 	(obj:0)
_var7086_                           0.139134400993387 	(obj:0)
_var7090_                           0.117232177632618 	(obj:0)
_var7091_                           0.135993742269565 	(obj:0)
_var7098_                           0.207078044956368 	(obj:0)
_var7100_                           0.163521480302157 	(obj:0)
_var7103_                          0.0611680848545421 	(obj:0)
_var7104_                           0.050182241504111 	(obj:0)
_var7106_                          0.0816024651007533 	(obj:0)
_var7109_                           0.089082493665699 	(obj:0)
_var7111_                           0.012773422696205 	(obj:0)
_var7113_                          0.0804834691633469 	(obj:0)
_var7116_                          0.0354536402880341 	(obj:0)
_var7119_                           0.141029854645522 	(obj:0)
_var7121_                           0.125660799899284 	(obj:0)
_var7122_                          0.0956093995532153 	(obj:0)
_var7123_                          0.0481938301876011 	(obj:0)
_var7124_                          0.0396098151089593 	(obj:0)
_var7127_                          0.0124266437009649 	(obj:0)
_var7128_                           0.123797794657107 	(obj:0)
_var7137_                           0.196431726745956 	(obj:0)
_var7141_                           0.258071747297833 	(obj:0)
_var7142_                            0.17255409763895 	(obj:0)
_var7146_                           0.107455743732454 	(obj:0)
_var7148_                           0.189747634567167 	(obj:0)
_var7149_                           0.260250323651783 	(obj:0)
_var7152_                          0.0679924520154044 	(obj:0)
_var7154_                          0.0260876332736082 	(obj:0)
_var7158_                           0.127214471537307 	(obj:0)
_var7162_                           0.185862282110606 	(obj:0)
_var7164_                           0.090626344847071 	(obj:0)
_var7168_                           0.063423751043233 	(obj:0)
_var7169_                           0.423888546747589 	(obj:0)
_var7171_                          0.0854995371530648 	(obj:0)
_var7173_                          0.0111155629931117 	(obj:0)
_var7175_                           0.100854468724668 	(obj:0)
_var7177_                           0.179649177372126 	(obj:0)
_var7178_                           0.159456818011461 	(obj:0)
_var7181_                          0.0710147852842616 	(obj:0)
_var7186_                           0.309859676576487 	(obj:0)
_var7188_                          0.0399698112283378 	(obj:0)
_var7189_                          0.0644782507328955 	(obj:0)
_var7190_                           0.150401992594111 	(obj:0)
_var7194_                           0.147332602877448 	(obj:0)
_var7197_                           0.126328052968459 	(obj:0)
_var7198_                           0.119416888395623 	(obj:0)
_var7204_                          0.0701538786423081 	(obj:0)
_var7205_                           0.171828639772361 	(obj:0)
_var7206_                           0.016607498091074 	(obj:0)
_var7216_                          0.0272701358567814 	(obj:0)
_var7217_                          0.0650904528432948 	(obj:0)
_var7219_                           0.190683047492632 	(obj:0)
_var7221_                          0.0263127388335899 	(obj:0)
_var7223_                            0.18765044896195 	(obj:0)
_var7225_                          0.0676799022999998 	(obj:0)
_var7226_                           0.145639821980476 	(obj:0)
_var7227_                           0.156550878873158 	(obj:0)
_var7229_                          0.0184568960951814 	(obj:0)
_var7230_                           0.115714884800896 	(obj:0)
_var7232_                         0.00374793972179015 	(obj:0)
_var7233_                          0.0869779692785209 	(obj:0)
_var7236_                         0.00943054461903975 	(obj:0)
_var7237_                          0.0483609202405888 	(obj:0)
_var7240_                          0.0116300248773197 	(obj:0)
_var7241_                           0.156276544460263 	(obj:0)
_var7244_                         0.00522749370144884 	(obj:0)
_var7245_                           0.166050720142569 	(obj:0)
_var7246_                           0.260039046580115 	(obj:0)
_var7248_                           0.111724628642325 	(obj:0)
_var7249_                           0.173867421463157 	(obj:0)
_var7250_                          0.0107006984200328 	(obj:0)
_var7251_                          0.0350987632452976 	(obj:0)
_var7252_                           0.113243373782784 	(obj:0)
_var7254_                          0.0396154971030271 	(obj:0)
_var7256_                           0.120399402021941 	(obj:0)
_var7258_                          0.0990341541436762 	(obj:0)
_var7260_                           0.134647698816446 	(obj:0)
_var7262_                           0.265786453079203 	(obj:0)
_var7267_                          0.0396517600440378 	(obj:0)
_var7270_                          0.0291257006696602 	(obj:0)
_var7272_                           0.190557693180854 	(obj:0)
_var7273_                            0.13920779735165 	(obj:0)
_var7274_                          0.0517112777255437 	(obj:0)
_var7279_                           0.089333239589065 	(obj:0)
_var7286_                          0.0271871983628377 	(obj:0)
_var7289_                           0.100384199313611 	(obj:0)
_var7290_                          0.0995821574255693 	(obj:0)
_var7291_                          0.0994618862999321 	(obj:0)
_var7292_                           0.115445078187496 	(obj:0)
_var7293_                          0.0469498519253585 	(obj:0)
_var7294_                           0.153965831672033 	(obj:0)
_var7295_                         0.00231361638967568 	(obj:0)
_var7298_                          0.0560258195407912 	(obj:0)
_var7299_                          0.0587962417480461 	(obj:0)
_var7300_                           0.107952086537737 	(obj:0)
_var7303_                           0.117017478759986 	(obj:0)
_var7304_                          0.0410414486172519 	(obj:0)
_var7305_                          0.0234992175251093 	(obj:0)
_var7310_                           0.036440342307967 	(obj:0)
_var7311_                          0.0468724379166304 	(obj:0)
_var7312_                          0.0693751990547327 	(obj:0)
_var7314_                          0.0796724087767143 	(obj:0)
_var7316_                           0.141422850499273 	(obj:0)
_var7319_                           0.109190374966576 	(obj:0)
_var7320_                           0.069227406179511 	(obj:0)
_var7321_                           0.326737062523651 	(obj:0)
_var7322_                           0.265873791979348 	(obj:0)
_var7324_                          0.0276357412006679 	(obj:0)
_var7327_                           0.141744920371541 	(obj:0)
_var7328_                          0.0668850050095699 	(obj:0)
_var7329_                          0.0358162131580762 	(obj:0)
_var7330_                          0.0255756261826804 	(obj:0)
_var7331_                           0.185003647192391 	(obj:0)
_var7334_                           0.112925071634794 	(obj:0)
_var7335_                            0.13881716594475 	(obj:0)
_var7338_                          0.0378900757226836 	(obj:0)
_var7342_                          0.0149185398092708 	(obj:0)
_var7343_                           0.117887751959047 	(obj:0)
_var7344_                          0.0361403105861298 	(obj:0)
_var7346_                           0.128734680723804 	(obj:0)
_var7348_                           0.193600922720646 	(obj:0)
_var7350_                          0.0513489465331458 	(obj:0)
_var7353_                           0.175886384306546 	(obj:0)
_var7354_                          0.0762282648425359 	(obj:0)
_var7355_                         0.00660094391408362 	(obj:0)
_var7356_                           0.110986557963631 	(obj:0)
_var7362_                          0.0565304946334252 	(obj:0)
_var7365_                          0.0582500892788133 	(obj:0)
_var7366_                          0.0155569787198191 	(obj:0)
_var7367_                          0.0103153659832919 	(obj:0)
_var7368_                          0.0744580419268273 	(obj:0)
_var7373_                          0.0614311719221754 	(obj:0)
_var7374_                           0.177630335895604 	(obj:0)
_var7377_                         0.00411628386999727 	(obj:0)
_var7378_                          0.0564370313917365 	(obj:0)
_var7379_                           0.142773424707097 	(obj:0)
_var7380_                           0.100867519641194 	(obj:0)
_var7381_                         0.00948073276787337 	(obj:0)
_var7383_                          0.0654996314693017 	(obj:0)
_var7387_                          0.0149329689834727 	(obj:0)
_var7388_                          0.0604269706012792 	(obj:0)
_var7389_                          0.0161621018700704 	(obj:0)
_var7391_                          0.0769338359271811 	(obj:0)
_var7392_                          0.0257671992160987 	(obj:0)
_var7393_                           0.046110558270987 	(obj:0)
_var7394_                          0.0563323521962667 	(obj:0)
_var7395_                          0.0844542416672687 	(obj:0)
_var7396_                           0.159521599859746 	(obj:0)
_var7398_                         0.00837125758980961 	(obj:0)
_var7401_                          0.0304745409987122 	(obj:0)
_var7402_                          0.0475496701845792 	(obj:0)
_var7404_                           0.021838279801599 	(obj:0)
_var7409_                          0.0559739931253386 	(obj:0)
_var7410_                           0.115261987016677 	(obj:0)
_var7411_                          0.0921383397800417 	(obj:0)
_var7413_                          0.0320608017704383 	(obj:0)
_var7415_                           0.029067479901404 	(obj:0)
_var7418_                           0.142733852670195 	(obj:0)
_var7419_                          0.0646861729497942 	(obj:0)
_var7420_                          0.0857006406430871 	(obj:0)
_var7421_                         0.00417631420811496 	(obj:0)
_var7423_                          0.0167257897017396 	(obj:0)
_var7425_                          0.0700776069013909 	(obj:0)
_var7426_                         0.00317315912199355 	(obj:0)
_var7427_                          0.0536186031226898 	(obj:0)
_var7428_                         0.000622443684114585 	(obj:0)
_var7429_                           0.102131788973249 	(obj:0)
_var7432_                          0.0240238352153585 	(obj:0)
_var7433_                          0.0951637999938576 	(obj:0)
_var7435_                          0.0104375610344547 	(obj:0)
_var7436_                          0.0576510857586492 	(obj:0)
_var7438_                          0.0629112878450383 	(obj:0)
_var7441_                          0.0432746744638467 	(obj:0)
_var7442_                         0.00190447706504271 	(obj:0)
_var7443_                          0.0118976291778453 	(obj:0)
_var7444_                           0.138385294195827 	(obj:0)
_var7445_                          0.0157844164772579 	(obj:0)
_var7447_                          0.0964627754513671 	(obj:0)
_var7448_                          0.0720214907556721 	(obj:0)
_var7451_                          0.0976477073314339 	(obj:0)
_var7453_                          0.0209415983128953 	(obj:0)
_var7455_                          0.0638427635593762 	(obj:0)
_var7456_                         0.00824513928258935 	(obj:0)
_var7460_                          0.0730099401816024 	(obj:0)
_var7461_                         0.000540245131413791 	(obj:0)
_var7464_                           0.120235270486251 	(obj:0)
_var7465_                           0.105540359763348 	(obj:0)
_var7466_                          0.0199209222036476 	(obj:0)
_var7467_                          0.0812569956083115 	(obj:0)
_var7472_                          0.0431745042091563 	(obj:0)
_var7476_                         0.000179603700144245 	(obj:0)
_var7477_                          0.0458842083170431 	(obj:0)
_var7479_                          0.0190225509115394 	(obj:0)
_var7480_                          0.0137884869577312 	(obj:0)
_var7481_                          0.0151393204889837 	(obj:0)
_var7483_                          0.0434453088221802 	(obj:0)
_var7484_                          0.0322731149568345 	(obj:0)
_var7487_                          0.0161311220480765 	(obj:0)
_var7489_                          0.0952684646562401 	(obj:0)
_var7490_                          0.0316336701531941 	(obj:0)
_var7491_                           0.034201385490961 	(obj:0)
_var7492_                          0.0408647265779386 	(obj:0)
_var7495_                          0.0300546872741249 	(obj:0)
_var7496_                         0.00303677688556378 	(obj:0)
_var7503_                            0.07378399883004 	(obj:0)
_var7505_                         0.000336316852494026 	(obj:0)
_var7506_                           0.151755948640655 	(obj:0)
_var7508_                          0.0162650552411438 	(obj:0)
_var7509_                          0.0768277675376913 	(obj:0)
_var7512_                         0.000238723772282262 	(obj:0)
_var7515_                          0.0678612879141142 	(obj:0)
_var7517_                         0.00296265699926316 	(obj:0)
_var7521_                          0.0566643853130415 	(obj:0)
_var7522_                          0.0779514560678833 	(obj:0)
_var7523_                         0.00287123620141284 	(obj:0)
_var7524_                          0.0213401519070005 	(obj:0)
_var7525_                          0.0351531124391577 	(obj:0)
_var7532_                          0.0118074072717968 	(obj:0)
_var7535_                          0.0263876790478035 	(obj:0)
_var7536_                           0.074836602325228 	(obj:0)
_var7538_                          0.0308519117676967 	(obj:0)
_var7539_                          0.0135444696967058 	(obj:0)
_var7540_                          0.0128040925397112 	(obj:0)
_var7541_                          0.0218203366914646 	(obj:0)
_var7542_                           0.031744458897008 	(obj:0)
_var7547_                         0.000967779024278674 	(obj:0)
_var7549_                         0.00266068966752955 	(obj:0)
_var7554_                          0.0190049251941027 	(obj:0)
_var7555_                          0.0160228472391678 	(obj:0)
_var7556_                          0.0276905457598844 	(obj:0)
_var7557_                          0.0615960386418572 	(obj:0)
_var7560_                         0.00327209998991004 	(obj:0)
_var7561_                          0.0154787733293055 	(obj:0)
_var7564_                         0.00391878339742641 	(obj:0)
_var7568_                         0.00392214693525281 	(obj:0)
_var7570_                         0.00351947623081812 	(obj:0)
_var7573_                          0.0226175842009637 	(obj:0)
